c Generated map
c Size: 10 * 10, weights in range: 1 to 10, walls: False, with ratio 0.0
c dim 1 of 6
c
p sp 100 180
c graph contains 100 nodes and 180 arcs
c
a 1 11 10
a 11 1 10
a 1 2 8
a 2 1 8
a 2 12 4
a 12 2 4
a 2 3 2
a 3 2 2
a 3 13 8
a 13 3 8
a 3 4 1
a 4 3 1
a 4 14 10
a 14 4 10
a 4 5 9
a 5 4 9
a 5 15 7
a 15 5 7
a 5 6 8
a 6 5 8
a 6 16 8
a 16 6 8
a 6 7 10
a 7 6 10
a 7 17 2
a 17 7 2
a 7 8 5
a 8 7 5
a 8 18 6
a 18 8 6
a 8 9 5
a 9 8 5
a 9 19 9
a 19 9 9
a 9 10 1
a 10 9 1
a 10 20 4
a 20 10 4
a 11 21 6
a 21 11 6
a 11 12 4
a 12 11 4
a 12 22 8
a 22 12 8
a 12 13 6
a 13 12 6
a 13 23 7
a 23 13 7
a 13 14 7
a 14 13 7
a 14 24 5
a 24 14 5
a 14 15 1
a 15 14 1
a 15 25 6
a 25 15 6
a 15 16 5
a 16 15 5
a 16 26 6
a 26 16 6
a 16 17 6
a 17 16 6
a 17 27 2
a 27 17 2
a 17 18 1
a 18 17 1
a 18 28 8
a 28 18 8
a 18 19 9
a 19 18 9
a 19 29 10
a 29 19 10
a 19 20 2
a 20 19 2
a 20 30 8
a 30 20 8
a 21 31 10
a 31 21 10
a 21 22 1
a 22 21 1
a 22 32 9
a 32 22 9
a 22 23 1
a 23 22 1
a 23 33 4
a 33 23 4
a 23 24 5
a 24 23 5
a 24 34 7
a 34 24 7
a 24 25 4
a 25 24 4
a 25 35 2
a 35 25 2
a 25 26 3
a 26 25 3
a 26 36 2
a 36 26 2
a 26 27 6
a 27 26 6
a 27 37 5
a 37 27 5
a 27 28 7
a 28 27 7
a 28 38 6
a 38 28 6
a 28 29 2
a 29 28 2
a 29 39 10
a 39 29 10
a 29 30 10
a 30 29 10
a 30 40 9
a 40 30 9
a 31 41 5
a 41 31 5
a 31 32 9
a 32 31 9
a 32 42 5
a 42 32 5
a 32 33 8
a 33 32 8
a 33 43 3
a 43 33 3
a 33 34 7
a 34 33 7
a 34 44 7
a 44 34 7
a 34 35 10
a 35 34 10
a 35 45 5
a 45 35 5
a 35 36 5
a 36 35 5
a 36 46 4
a 46 36 4
a 36 37 7
a 37 36 7
a 37 47 8
a 47 37 8
a 37 38 4
a 38 37 4
a 38 48 8
a 48 38 8
a 38 39 3
a 39 38 3
a 39 49 9
a 49 39 9
a 39 40 3
a 40 39 3
a 40 50 10
a 50 40 10
a 41 51 6
a 51 41 6
a 41 42 6
a 42 41 6
a 42 52 2
a 52 42 2
a 42 43 8
a 43 42 8
a 43 53 4
a 53 43 4
a 43 44 1
a 44 43 1
a 44 54 10
a 54 44 10
a 44 45 4
a 45 44 4
a 45 55 8
a 55 45 8
a 45 46 9
a 46 45 9
a 46 56 8
a 56 46 8
a 46 47 10
a 47 46 10
a 47 57 7
a 57 47 7
a 47 48 7
a 48 47 7
a 48 58 4
a 58 48 4
a 48 49 5
a 49 48 5
a 49 59 8
a 59 49 8
a 49 50 8
a 50 49 8
a 50 60 5
a 60 50 5
a 51 61 3
a 61 51 3
a 51 52 7
a 52 51 7
a 52 62 2
a 62 52 2
a 52 53 6
a 53 52 6
a 53 63 10
a 63 53 10
a 53 54 5
a 54 53 5
a 54 64 8
a 64 54 8
a 54 55 4
a 55 54 4
a 55 65 2
a 65 55 2
a 55 56 3
a 56 55 3
a 56 66 3
a 66 56 3
a 56 57 8
a 57 56 8
a 57 67 7
a 67 57 7
a 57 58 7
a 58 57 7
a 58 68 2
a 68 58 2
a 58 59 9
a 59 58 9
a 59 69 8
a 69 59 8
a 59 60 7
a 60 59 7
a 60 70 8
a 70 60 8
a 61 71 7
a 71 61 7
a 61 62 1
a 62 61 1
a 62 72 4
a 72 62 4
a 62 63 7
a 63 62 7
a 63 73 6
a 73 63 6
a 63 64 6
a 64 63 6
a 64 74 2
a 74 64 2
a 64 65 10
a 65 64 10
a 65 75 8
a 75 65 8
a 65 66 1
a 66 65 1
a 66 76 6
a 76 66 6
a 66 67 8
a 67 66 8
a 67 77 7
a 77 67 7
a 67 68 8
a 68 67 8
a 68 78 2
a 78 68 2
a 68 69 8
a 69 68 8
a 69 79 9
a 79 69 9
a 69 70 3
a 70 69 3
a 70 80 1
a 80 70 1
a 71 81 9
a 81 71 9
a 71 72 4
a 72 71 4
a 72 82 2
a 82 72 2
a 72 73 10
a 73 72 10
a 73 83 3
a 83 73 3
a 73 74 3
a 74 73 3
a 74 84 5
a 84 74 5
a 74 75 8
a 75 74 8
a 75 85 10
a 85 75 10
a 75 76 1
a 76 75 1
a 76 86 1
a 86 76 1
a 76 77 5
a 77 76 5
a 77 87 1
a 87 77 1
a 77 78 4
a 78 77 4
a 78 88 10
a 88 78 10
a 78 79 7
a 79 78 7
a 79 89 5
a 89 79 5
a 79 80 2
a 80 79 2
a 80 90 5
a 90 80 5
a 81 91 5
a 91 81 5
a 81 82 5
a 82 81 5
a 82 92 9
a 92 82 9
a 82 83 1
a 83 82 1
a 83 93 3
a 93 83 3
a 83 84 2
a 84 83 2
a 84 94 5
a 94 84 5
a 84 85 4
a 85 84 4
a 85 95 5
a 95 85 5
a 85 86 6
a 86 85 6
a 86 96 8
a 96 86 8
a 86 87 4
a 87 86 4
a 87 97 10
a 97 87 10
a 87 88 8
a 88 87 8
a 88 98 1
a 98 88 1
a 88 89 4
a 89 88 4
a 89 99 8
a 99 89 8
a 89 90 3
a 90 89 3
a 90 100 8
a 100 90 8
a 91 92 4
a 92 91 4
a 92 93 4
a 93 92 4
a 93 94 6
a 94 93 6
a 94 95 4
a 95 94 4
a 95 96 5
a 96 95 5
a 96 97 5
a 97 96 5
a 97 98 5
a 98 97 5
a 98 99 4
a 99 98 4
a 99 100 5
a 100 99 5
